; benchmark generated from python API
(set-info :status unknown)
(declare-datatypes ((RealState 0)) (((RMk1 (rval1 Real)) (RMk2 (rval2 Real)))))
 (assert
 (exists ((|v11:0_st| RealState) (val!6052 Real) )(exists ((|v10:1_st| RealState) (val!6053 Real) )(exists ((|v9:2_st| RealState) (val!6054 Real) )(exists ((|v8:3_st| RealState) (val!6055 Real) )(forall ((|v7:4| Real) )(forall ((|v6:5| Real) )(forall ((|v5:6| Real) )(forall ((|v4:7| Real) )(exists ((|v3:8_st| RealState) (val!6056 Real) )(exists ((|v2:9_st| RealState) (val!6057 Real) )(exists ((|v1:10_st| RealState) (val!6058 Real) )(exists ((|v0:11_st| RealState) (val!6059 Real) )(let ((?x2432 (+ (+ (* (- 6.0) (rval2 |v2:9_st|)) (* 18.0 (rval2 |v2:9_st|))) (* 16.0 (rval2 |v8:3_st|)))))
 (let ((?x1319 (- 13.0)))
 (let ((?x2487 (+ (+ (* (- 18.0) (rval2 |v0:11_st|)) (* 9.0 (rval2 |v9:2_st|))) (* (- 19.0) (rval2 |v9:2_st|)))))
 (let (($x357 (and (<= (+ ?x2487 (* (- 16.0) (rval2 |v10:1_st|))) ?x1319) (<= (+ ?x2432 (* (- 19.0) (rval2 |v8:3_st|))) 10.0))))
 (let ((?x3147 (rval2 |v9:2_st|)))
 (let ((?x1415 (- 15.0)))
 (let ((?x2799 (* ?x1415 ?x3147)))
 (let ((?x220 (rval2 |v11:0_st|)))
 (let ((?x234 (* 5.0 ?x220)))
 (let ((?x2772 (+ (+ (+ (* (- 3.0) (rval2 |v2:9_st|)) (* (- 9.0) |v7:4|)) ?x234) ?x2799)))
 (let ((?x1325 (+ (+ (* (- 5.0) (rval2 |v8:3_st|)) (* (- 16.0) |v7:4|)) (* 2.0 (rval2 |v8:3_st|)))))
 (let (($x859 (or (<= (+ ?x1325 (* (- 19.0) (rval2 |v0:11_st|))) 7.0) (<= ?x2772 7.0))))
 (let ((?x1774 (- 11.0)))
 (let ((?x961 (- 2.0)))
 (let ((?x1743 (* ?x961 |v4:7|)))
 (let ((?x696 (+ (+ (+ (* (- 14.0) |v5:6|) (* (- 10.0) (rval2 |v8:3_st|))) ?x1743) (* 12.0 (rval2 |v8:3_st|)))))
 (let ((?x2650 (* 14.0 |v4:7|)))
 (let ((?x2352 (+ (+ (+ (* 20.0 |v7:4|) (* 9.0 |v6:5|)) (* 16.0 (rval2 |v10:1_st|))) ?x2650)))
 (let ((?x2387 (- 1.0)))
 (let ((?x1907 (* 10.0 |v7:4|)))
 (let ((?x3071 (rval2 |v8:3_st|)))
 (let ((?x1633 (- 7.0)))
 (let ((?x1870 (* ?x1633 ?x3071)))
 (let (($x2873 (<= (+ (+ (+ (* ?x1633 |v4:7|) (* 3.0 (rval2 |v2:9_st|))) ?x1870) ?x1907) ?x2387)))
 (let ((?x2946 (- 12.0)))
 (let ((?x2648 (- 8.0)))
 (let ((?x1834 (* ?x2648 ?x220)))
 (let ((?x1897 (+ (+ (+ (* 19.0 |v6:5|) (* 6.0 |v7:4|)) (* (- 20.0) |v4:7|)) ?x1834)))
 (let (($x3432 (and (and (<= ?x1897 ?x2946) $x2873) (and (<= ?x2352 12.0) (<= ?x696 ?x1774)))))
 (let ((?x71 (- 9.0)))
 (let ((?x2637 (+ (+ (+ (* 16.0 (rval2 |v2:9_st|)) (* ?x1415 ?x220)) (* (- 20.0) |v6:5|)) (* 9.0 ?x220))))
 (let ((?x599 (- 6.0)))
 (let ((?x3195 (* 10.0 ?x220)))
 (let ((?x3179 (+ (+ (+ (* (- 10.0) |v7:4|) (* 19.0 (rval2 |v1:10_st|))) (* 7.0 ?x3071)) ?x3195)))
 (let ((?x1709 (- 16.0)))
 (let ((?x2970 (* ?x2946 |v4:7|)))
 (let ((?x2401 (* 10.0 |v5:6|)))
 (let ((?x1315 (+ (+ (+ (* 14.0 (rval2 |v2:9_st|)) (* (- 18.0) (rval2 |v3:8_st|))) ?x2401) ?x2970)))
 (let ((?x2031 (* 18.0 |v5:6|)))
 (let ((?x331 (+ (+ (* (- 4.0) |v6:5|) (* 4.0 (rval2 |v1:10_st|))) (* (- 5.0) |v7:4|))))
 (let (($x1828 (and (and (<= (+ ?x331 ?x2031) ?x2387) (<= ?x1315 ?x1709)) (and (<= ?x3179 ?x599) (<= ?x2637 ?x71)))))
 (let ((?x2845 (* ?x2946 |v5:6|)))
 (let ((?x132 (+ (+ (+ (* 0.0 ?x3147) (* ?x71 (rval2 |v0:11_st|))) (* ?x2946 (rval2 |v3:8_st|))) ?x2845)))
 (let ((?x2993 (* 0.0 ?x3147)))
 (let ((?x1202 (+ (+ (+ (* 15.0 |v7:4|) (* (- 5.0) ?x3071)) (* 6.0 |v6:5|)) ?x2993)))
 (let ((?x2397 (rval2 |v3:8_st|)))
 (let ((?x2849 (* 0.0 ?x2397)))
 (let (($x2963 (<= (+ (+ (+ (* ?x2946 (rval2 |v0:11_st|)) ?x1834) (* 14.0 |v6:5|)) ?x2849) 16.0)))
 (let ((?x496 (- 19.0)))
 (let ((?x2053 (+ (+ (+ ?x2845 (* 12.0 (rval2 |v1:10_st|))) (* 20.0 |v5:6|)) (* ?x1633 ?x220))))
 (let (($x1764 (and (and (<= ?x2053 ?x496) $x2963) (and (<= ?x1202 10.0) (<= ?x132 ?x1709)))))
 (let ((?x894 (* 6.0 |v7:4|)))
 (let ((?x1951 (+ (+ (+ (* ?x1319 ?x2397) (* (- 17.0) (rval2 |v0:11_st|))) (* ?x1319 ?x3147)) ?x894)))
 (let ((?x273 (rval2 |v2:9_st|)))
 (let ((?x751 (* 5.0 ?x273)))
 (let ((?x1546 (+ (+ (+ (* ?x1415 |v6:5|) (* 2.0 (rval2 |v10:1_st|))) (* ?x2648 |v7:4|)) ?x751)))
 (let ((?x1477 (- 5.0)))
 (let ((?x1936 (* 3.0 |v4:7|)))
 (let ((?x2346 (+ (+ (+ (* 5.0 (rval2 |v0:11_st|)) (* ?x961 |v6:5|)) (* 0.0 |v6:5|)) ?x1936)))
 (let ((?x2503 (- 3.0)))
 (let ((?x3447 (* ?x2503 ?x273)))
 (let ((?x1854 (+ (+ (* 16.0 (rval2 |v1:10_st|)) (* (- 10.0) (rval2 |v10:1_st|))) (* 0.0 |v7:4|))))
 (let (($x815 (and (and (<= (+ ?x1854 ?x3447) 20.0) (<= ?x2346 ?x1477)) (and (<= ?x1546 ?x71) (<= ?x1951 14.0)))))
 (let (($x1100 (<= (+ (+ (+ (* ?x599 ?x2397) (* ?x496 ?x2397)) |v6:5|) (* 4.0 |v7:4|)) 10.0)))
 (let ((?x498 (* 6.0 |v6:5|)))
 (let (($x2775 (<= (+ (+ (+ (* ?x1415 |v6:5|) ?x2031) (* 17.0 (rval2 |v10:1_st|))) ?x498) 13.0)))
 (let ((?x2554 (+ (+ (+ (* 19.0 ?x2397) (* 7.0 |v6:5|)) (* ?x2387 |v6:5|)) (* (- 20.0) ?x273))))
 (let ((?x3342 (* 2.0 ?x220)))
 (let ((?x3417 (+ (+ (+ (* ?x2503 (rval2 |v1:10_st|)) (* (- 10.0) ?x3071)) (* ?x1709 |v6:5|)) ?x3342)))
 (let (($x529 (and (and (and (<= ?x3417 ?x1774) (<= ?x2554 3.0)) (and $x2775 $x1100)) $x815)))
 (let ((?x2250 (rval2 |v10:1_st|)))
 (let ((?x881 (* 10.0 ?x2250)))
 (let (($x1188 (<= (+ (+ (+ (* ?x496 |v4:7|) (* ?x1319 |v5:6|)) (* (- 18.0) |v6:5|)) ?x881) ?x2946)))
 (let ((?x3138 (rval2 |v1:10_st|)))
 (let ((?x2108 (* 16.0 ?x3138)))
 (let (($x1229 (<= (+ (+ (+ (* 4.0 |v6:5|) (* ?x71 |v6:5|)) (* 2.0 |v6:5|)) ?x2108) 14.0)))
 (let ((?x2749 (- 17.0)))
 (let ((?x2683 (+ (+ (+ (* 14.0 ?x220) (* 2.0 |v7:4|)) (* 15.0 (rval2 |v0:11_st|))) ?x220)))
 (let ((?x3395 (* ?x1415 ?x2397)))
 (let (($x1758 (<= (+ (+ (+ (* ?x71 ?x3147) (* ?x1774 |v6:5|)) (* 9.0 |v4:7|)) ?x3395) 11.0)))
 (let ((?x81 (* 18.0 |v6:5|)))
 (let ((?x2663 (+ (+ (* (- 4.0) ?x2397) (* 15.0 |v5:6|)) (* (- 20.0) (rval2 |v0:11_st|)))))
 (let ((?x1389 (* 11.0 |v7:4|)))
 (let (($x179 (<= (+ (+ (+ (* 2.0 ?x2397) |v7:4|) (* ?x961 (rval2 |v0:11_st|))) ?x1389) 15.0)))
 (let ((?x2717 (* 15.0 |v7:4|)))
 (let ((?x313 (+ (+ (+ (* 4.0 |v7:4|) (* 18.0 ?x3147)) (* (- 14.0) ?x2250)) ?x2717)))
 (let ((?x2784 (* 4.0 ?x2250)))
 (let (($x2445 (and (<= (+ (+ (+ (* 2.0 ?x273) ?x2784) (* 11.0 |v6:5|)) ?x2784) 12.0) (<= ?x313 ?x1709))))
 (let (($x1520 (and (and $x2445 (and $x179 (<= (+ ?x2663 ?x81) ?x2387))) (and (and $x1758 (<= ?x2683 ?x2749)) (and $x1229 $x1188)))))
 (let (($x1382 (and (and $x1520 $x529) (and (and $x1764 $x1828) (and $x3432 (and $x859 $x357))))))
 (let (($x415 (<= (+ (+ (+ (* ?x2946 ?x220) (* ?x2503 |v4:7|)) |v7:4|) (* (- 20.0) ?x3138)) ?x2749)))
 (let ((?x3474 (* ?x1415 ?x220)))
 (let ((?x3345 (+ (+ (+ (* 17.0 ?x273) (* ?x1709 (rval2 |v0:11_st|))) (* 7.0 ?x3071)) ?x3474)))
 (let ((?x721 (rval2 |v0:11_st|)))
 (let ((?x1642 (- 18.0)))
 (let ((?x2153 (* ?x1642 ?x721)))
 (let (($x1514 (<= (+ (+ (+ (* 16.0 ?x2250) (* 17.0 |v6:5|)) (* 12.0 ?x721)) ?x2153) ?x1319)))
 (let ((?x2694 (* 0.0 ?x3071)))
 (let (($x2070 (<= (+ (+ (+ (* (- 14.0) ?x3147) (* 9.0 |v4:7|)) ?x3395) ?x2694) 7.0)))
 (let ((?x413 (+ (+ (+ |v6:5| (* (- 4.0) ?x3138)) (* (- 10.0) ?x3071)) (* ?x71 ?x3071))))
 (let ((?x3364 (+ (+ (+ (* 17.0 ?x273) (* ?x2387 ?x2250)) (* (- 14.0) ?x721)) (* 10.0 ?x273))))
 (let (($x431 (<= (+ (+ (+ |v6:5| (* 13.0 ?x2250)) (* ?x71 ?x3138)) (* 0.0 ?x2250)) ?x496)))
 (let ((?x2072 (- 14.0)))
 (let ((?x2408 (* 8.0 |v7:4|)))
 (let (($x2100 (<= (+ (+ (+ ?x2694 (* (- 4.0) ?x3071)) (* 16.0 |v5:6|)) ?x2408) ?x2072)))
 (let (($x1624 (and (and (and $x2100 $x431) (or (<= ?x3364 ?x2749) (<= ?x413 ?x2503))) (and (or $x2070 $x1514) (or (<= ?x3345 1.0) $x415)))))
 (let ((?x2367 (* 7.0 ?x273)))
 (let (($x3335 (<= (+ (+ (+ (* ?x496 |v5:6|) (* ?x2503 ?x3147)) (* (- 10.0) |v7:4|)) ?x2367) ?x1642)))
 (let ((?x1070 (* 5.0 ?x3147)))
 (let (($x1291 (<= (+ (+ (+ (* ?x961 |v7:4|) (* 20.0 |v7:4|)) (* 19.0 ?x2250)) ?x1070) ?x2648)))
 (let ((?x2138 (* 12.0 ?x3138)))
 (let (($x2644 (<= (+ (+ (+ (* ?x1709 ?x721) (* ?x1774 |v4:7|)) (* 18.0 ?x721)) ?x2138) ?x71)))
 (let (($x1823 (and (<= (+ (+ (+ (* 10.0 ?x2397) (* ?x599 ?x220)) ?x1870) ?x2153) ?x2072) $x2644)))
 (let ((?x3448 (* 0.0 ?x721)))
 (let (($x475 (<= (+ (+ (+ (* ?x71 |v5:6|) (* ?x1633 ?x3147)) (* 2.0 ?x2397)) ?x3448) 7.0)))
 (let ((?x2982 (+ (+ (+ (* 19.0 ?x3071) (* ?x1477 ?x2397)) (* 12.0 |v4:7|)) (* ?x599 |v6:5|))))
 (let ((?x2572 (- 4.0)))
 (let ((?x2022 (* ?x2572 ?x3071)))
 (let (($x3173 (<= (+ (+ (+ (* ?x2946 |v7:4|) (* ?x1709 |v5:6|)) (* 10.0 ?x2397)) ?x2022) ?x2572)))
 (let (($x2265 (<= (+ (+ (+ (* ?x1642 |v4:7|) ?x894) (* 9.0 ?x2397)) (* (- 20.0) |v7:4|)) 4.0)))
 (let (($x1719 (and (and (and $x2265 $x3173) (and (<= ?x2982 ?x2072) $x475)) (and $x1823 (and $x1291 $x3335)))))
 (let (($x1467 (<= (+ (+ (+ (* ?x2503 |v7:4|) (* (- 20.0) ?x3071)) (* ?x496 ?x2250)) ?x2849) ?x1477)))
 (let ((?x836 (* 3.0 |v5:6|)))
 (let (($x1651 (<= (+ (+ (+ (* 13.0 ?x2397) (* 8.0 ?x273)) (* 4.0 ?x220)) ?x836) ?x1415)))
 (let ((?x1540 (* 6.0 |v4:7|)))
 (let (($x931 (<= (+ (+ (+ (* 11.0 ?x220) (* 9.0 ?x3138)) (* ?x1774 ?x220)) ?x1540) 16.0)))
 (let (($x1718 (and (and $x931 (<= (+ (+ (+ ?x2970 ?x2799) ?x3395) (* ?x2072 ?x3147)) ?x2648)) (and $x1651 $x1467))))
 (let (($x266 (<= (+ (+ (+ (* 10.0 ?x3138) ?x3474) (* 12.0 ?x220)) (* 17.0 ?x3071)) 4.0)))
 (let ((?x1790 (+ (+ (+ (* ?x1477 ?x273) (* 19.0 ?x3147)) (* ?x599 ?x220)) (* 12.0 ?x3147))))
 (let ((?x2722 (+ (+ (+ (* ?x1415 |v4:7|) (* 2.0 ?x273)) (* ?x1642 |v7:4|)) (* ?x961 ?x3071))))
 (let (($x1701 (<= (+ (+ (+ ?x1936 (* ?x1774 ?x3071)) (* 4.0 ?x220)) (* 16.0 ?x3147)) ?x1415)))
 (let (($x2200 (and (and (and $x1701 (<= ?x2722 ?x1774)) (and (<= ?x1790 6.0) $x266)) $x1718)))
 (let ((?x933 (* 17.0 ?x3138)))
 (let (($x1099 (<= (+ (+ (+ (* 19.0 ?x2250) (* 7.0 |v6:5|)) (* 11.0 ?x220)) ?x933) 5.0)))
 (let ((?x636 (* 12.0 ?x2397)))
 (let (($x214 (<= (+ (+ (+ (* 20.0 ?x2250) (* 20.0 ?x220)) (* ?x1415 |v6:5|)) ?x636) ?x2946)))
 (let (($x2097 (<= (+ (+ (+ (* ?x71 |v4:7|) ?x3195) (* 0.0 |v4:7|)) (* 4.0 ?x220)) 8.0)))
 (let (($x191 (<= (+ (+ (+ (* ?x1774 ?x2250) (* ?x1709 ?x220)) (* ?x1774 ?x273)) ?x3395) ?x71)))
 (let (($x1336 (<= (+ (+ (+ ?x3448 (* ?x1477 |v5:6|)) (* ?x2072 ?x3147)) (* 4.0 ?x273)) ?x1709)))
 (let ((?x1634 (+ (+ (+ (* 16.0 |v5:6|) (* ?x599 ?x3138)) (* ?x1709 ?x220)) (* ?x2648 |v6:5|))))
 (let (($x3209 (<= (+ (+ (+ (* 10.0 ?x3147) (* ?x1642 ?x2250)) |v5:6|) (* ?x2503 |v7:4|)) 4.0)))
 (let (($x1839 (<= (+ (+ (+ (* ?x2946 ?x721) (* 11.0 ?x3147)) ?x2250) (* ?x71 |v6:5|)) 15.0)))
 (let (($x704 (or (and (and $x1839 $x3209) (and (<= ?x1634 ?x1774) $x1336)) (and (and $x191 $x2097) (and $x214 $x1099)))))
 (let (($x1161 (not (= |v0:11_st| (RMk1 val!6059)))))
 (let (($x1272 (not (= |v1:10_st| (RMk1 val!6058)))))
 (let (($x1346 (not (= |v2:9_st| (RMk1 val!6057)))))
 (let (($x2005 (not (= |v3:8_st| (RMk1 val!6056)))))
 (let (($x1367 (not (= |v8:3_st| (RMk1 val!6055)))))
 (let (($x3058 (not (= |v9:2_st| (RMk1 val!6054)))))
 (let (($x1294 (not (= |v10:1_st| (RMk1 val!6053)))))
 (let (($x2915 (not (= |v11:0_st| (RMk1 val!6052)))))
 (and $x2915 $x1294 $x3058 $x1367 $x2005 $x1346 $x1272 $x1161 (and (and (and $x704 $x2200) (and $x1719 $x1624)) $x1382))))))))))))))))))))))))))))))))))))))))))))))))))))))))))))))))))))))))))))))))))))))))))))))))))))))))))))))))))))))))))))))))))))))))))))))))))))))))))
 )
 )
 )
 )
 )
 )
 )
 )
 )
 )
 )
 )
(check-sat)
